c generated by generate.py on 2024-12-25 09:30:42
c positive instance
p edge 53 102
e 1 2
e 1 3
e 1 13
e 1 36
e 1 40
e 1 42
e 1 43
e 3 10
e 3 38
e 4 29
e 4 36
e 4 46
e 4 50
e 5 9
e 5 22
e 5 30
e 5 42
e 7 9
e 7 20
e 7 37
e 7 39
e 7 43
e 8 15
e 8 18
e 9 23
e 9 27
e 9 33
e 9 47
e 9 48
e 9 49
e 10 41
e 10 51
e 11 25
e 11 34
e 11 35
e 11 38
e 11 44
e 11 49
e 12 35
e 12 42
e 12 51
e 12 53
e 13 26
e 13 32
e 13 37
e 13 51
e 14 19
e 14 21
e 14 40
e 14 45
e 15 34
e 15 37
e 15 43
e 15 45
e 15 52
e 16 50
e 17 21
e 17 27
e 17 38
e 18 36
e 19 39
e 19 42
e 20 39
e 21 24
e 21 44
e 22 28
e 22 29
e 22 36
e 22 52
e 22 53
e 24 28
e 24 35
e 24 53
e 27 29
e 27 32
e 28 36
e 28 39
e 28 50
e 29 47
e 29 49
e 29 51
e 30 39
e 30 47
e 31 41
e 32 39
e 34 35
e 34 37
e 34 40
e 34 43
e 37 44
e 37 53
e 38 49
e 38 52
e 39 46
e 39 47
e 40 43
e 40 48
e 40 53
e 43 47
e 46 50
e 48 50
e 48 51
